sat
(
  (define-fun PriceProv2 () Int
    116)
  (define-fun C3_VM9 () Int
    0)
  (define-fun C4_VM12 () Int
    0)
  (define-fun C1_VM12 () Int
    1)
  (define-fun StorageProv11 () Int
    2000)
  (define-fun MemProv12 () Int
    3750)
  (define-fun C2_VM3 () Int
    0)
  (define-fun MemProv11 () Int
    3750)
  (define-fun C5_VM8 () Int
    0)
  (define-fun C4_VM3 () Int
    0)
  (define-fun StorageProv9 () Int
    2000)
  (define-fun C2_VM2 () Int
    1)
  (define-fun C1_VM8 () Int
    1)
  (define-fun C3_VM8 () Int
    0)
  (define-fun PriceProv9 () Int
    116)
  (define-fun C5_VM2 () Int
    0)
  (define-fun ProcProv2 () Int
    2)
  (define-fun PriceProv8 () Int
    116)
  (define-fun ProcProv8 () Int
    2)
  (define-fun ProcProv4 () Int
    4)
  (define-fun C5_VM4 () Int
    1)
  (define-fun C1_VM5 () Int
    0)
  (define-fun StorageProv10 () Int
    2000)
  (define-fun PriceProv4 () Int
    210)
  (define-fun PriceProv12 () Int
    116)
  (define-fun VM5Type () Int
    341)
  (define-fun C2_VM5 () Int
    0)
  (define-fun C4_VM2 () Int
    0)
  (define-fun C1_VM10 () Int
    1)
  (define-fun MemProv4 () Int
    7500)
  (define-fun StorageProv8 () Int
    2000)
  (define-fun VM1Type () Int
    433)
  (define-fun ProcProv7 () Int
    4)
  (define-fun VM10Type () Int
    433)
  (define-fun C5_VM11 () Int
    0)
  (define-fun C5_VM7 () Int
    1)
  (define-fun MemProv2 () Int
    3750)
  (define-fun C5_VM1 () Int
    0)
  (define-fun C1_VM7 () Int
    0)
  (define-fun ProcProv1 () Int
    2)
  (define-fun C3_VM7 () Int
    0)
  (define-fun VM11Type () Int
    433)
  (define-fun VM6Type () Int
    433)
  (define-fun MemProv3 () Int
    3750)
  (define-fun C3_VM11 () Int
    0)
  (define-fun C1_VM2 () Int
    0)
  (define-fun C5_VM9 () Int
    0)
  (define-fun C2_VM10 () Int
    0)
  (define-fun C2_VM11 () Int
    0)
  (define-fun C3_VM10 () Int
    0)
  (define-fun C3_VM3 () Int
    0)
  (define-fun PriceProv1 () Int
    116)
  (define-fun VM12Type () Int
    433)
  (define-fun C1_VM6 () Int
    0)
  (define-fun MemProv6 () Int
    3750)
  (define-fun C2_VM8 () Int
    0)
  (define-fun C1_VM1 () Int
    0)
  (define-fun VM7Type () Int
    341)
  (define-fun MemProv9 () Int
    3750)
  (define-fun ProcProv11 () Int
    2)
  (define-fun C1_VM9 () Int
    0)
  (define-fun C2_VM12 () Int
    0)
  (define-fun C1_VM11 () Int
    1)
  (define-fun StorageProv5 () Int
    2000)
  (define-fun PriceProv3 () Int
    116)
  (define-fun PriceProv10 () Int
    116)
  (define-fun MemProv8 () Int
    3750)
  (define-fun C2_VM9 () Int
    1)
  (define-fun C1_VM3 () Int
    1)
  (define-fun PriceProv11 () Int
    116)
  (define-fun C3_VM5 () Int
    1)
  (define-fun StorageProv6 () Int
    2000)
  (define-fun ProcProv9 () Int
    2)
  (define-fun StorageProv1 () Int
    2000)
  (define-fun StorageProv7 () Int
    2000)
  (define-fun VM8Type () Int
    433)
  (define-fun StorageProv12 () Int
    2000)
  (define-fun C2_VM7 () Int
    0)
  (define-fun ProcProv12 () Int
    2)
  (define-fun C4_VM7 () Int
    0)
  (define-fun C3_VM4 () Int
    0)
  (define-fun C3_VM12 () Int
    0)
  (define-fun C4_VM11 () Int
    0)
  (define-fun C5_VM3 () Int
    0)
  (define-fun C5_VM12 () Int
    0)
  (define-fun VM2Type () Int
    433)
  (define-fun C3_VM1 () Int
    0)
  (define-fun MemProv1 () Int
    3750)
  (define-fun C2_VM4 () Int
    0)
  (define-fun C2_VM1 () Int
    1)
  (define-fun ProcProv3 () Int
    2)
  (define-fun StorageProv4 () Int
    2000)
  (define-fun C5_VM6 () Int
    0)
  (define-fun C4_VM6 () Int
    0)
  (define-fun VM9Type () Int
    433)
  (define-fun C1_VM4 () Int
    0)
  (define-fun C4_VM10 () Int
    0)
  (define-fun MemProv10 () Int
    3750)
  (define-fun ProcProv10 () Int
    2)
  (define-fun C4_VM9 () Int
    0)
  (define-fun ProcProv6 () Int
    2)
  (define-fun PriceProv7 () Int
    210)
  (define-fun C3_VM2 () Int
    0)
  (define-fun C4_VM5 () Int
    0)
  (define-fun VM3Type () Int
    433)
  (define-fun PriceProv5 () Int
    210)
  (define-fun C4_VM8 () Int
    0)
  (define-fun C5_VM10 () Int
    0)
  (define-fun C4_VM1 () Int
    0)
  (define-fun StorageProv3 () Int
    2000)
  (define-fun C5_VM5 () Int
    0)
  (define-fun C4_VM4 () Int
    0)
  (define-fun C3_VM6 () Int
    0)
  (define-fun PriceProv6 () Int
    116)
  (define-fun C2_VM6 () Int
    1)
  (define-fun ProcProv5 () Int
    4)
  (define-fun MemProv7 () Int
    7500)
  (define-fun MemProv5 () Int
    7500)
  (define-fun StorageProv2 () Int
    2000)
  (define-fun VM4Type () Int
    341)
)
(objectives
 ( 48)
 ((+ 0
   PriceProv1
   PriceProv2
   PriceProv3
   PriceProv4
   PriceProv5
   PriceProv6
   PriceProv7
   PriceProv8
   PriceProv9
   PriceProv10
   PriceProv11
   PriceProv12) 1674)
)
(:added-eqs                   882043
 :arith-eq-adapter            600510
 :arith-bound-propagations-lp 984
 :arith-conflicts             69
 :arith-diseq                 1027307
 :arith-fixed-eqs             6705
 :arith-lower                 1000461
 :arith-make-feasible         421035
 :arith-max-columns           639
 :arith-max-rows              38
 :arith-upper                 1095232
 :binary-propagations         3800915
 :bv-bit2core                 21468
 :bv-dynamic-diseqs           1920632
 :bv-dynamic-eqs              1
 :bv->core-eq                 3426
 :conflicts                   5386
 :decisions                   1153917
 :del-clause                  2596070
 :final-checks                45
 :max-memory                  139.52
 :maxsat-cores                12
 :memory                      132.94
 :minimized-lits              5931
 :mk-bool-var                 1200516
 :mk-clause                   2603854
 :mk-clause-binary            29725
 :num-allocs                  19294598054.00
 :num-checks                  63
 :pb-conflicts                381
 :pb-predicates               7
 :pb-propagations             9555
 :pb-resolves                 4
 :propagations                4553638
 :restarts                    38
 :rlimit-count                59050690
 :time                        11.91
 :total-time                  11.95)
